sat
(:eliminated-vars              1
 :max-memory                   18.11
 :memory                       18.00
 :nlsat-irrational-assignments 2
 :nlsat-propagations           9
 :nlsat-stages                 4
 :num-allocs                   6551
 :rlimit-count                 2544
 :time                         0.00
 :total-time                   0.01)
